# This script performs NEHI procedure to compute the Helmholtz free-energy of mW fluid. The reference system is the UFM.

label RESTART

######################################     General Variables     #######################################
# Initalizes random number generator.
  variable          rnd      equal   round(random(0,999999,${RANDOM}))

# Initial definitions.
  variable          T        equal   290            # Simulation temperature (K).
  variable          kB       equal   8.617343e-05   # Boltzmann constant (eV/K).
  variable          p        equal   50.0           # UF p-parameter.
  variable          eps      equal   $p*${kB}*$T    # UF epsilon parameter (eV).
  variable          sig      equal   2.0            # UF sigma parameter (Angs).
  variable          rc       equal   5.0*${sig}     # UF cutoff radius (Angs).

# Time variables.
  variable          t_eq     equal   50000          # Equilibration steps.
  variable          t_s      equal   400000         # Switching steps.
  variable          dt       equal   0.002          # Timestep (ps).
  variable          damp_T   equal   100*${dt}      # Damp parameter for the thermostat (ps).

# Thermodynamic integration variables.
  variable          li       equal   1.0            # Initial lambda.
  variable          lf       equal   0.0            # Final lambda.
  variable          N_sim    loop    10             # Number of independent simulations.
#------------------------------------------------------------------------------------------------------#

########################################     Atomic setup     ##########################################
# Defines the style of atoms, units and boundary conditions.
  atom_style        atomic 
  units             metal
  boundary          p p p
    
# Read atoms positions, velocities and box parameters.
  read_data         data_init.dat

  neigh_modify      delay 0

  mass              1 18.01528

# Define SW and UFM potentials parameters.
  pair_style        hybrid/overlay sw ufm ${rc}
  pair_coeff        * * sw mW.sw H2O
  pair_coeff        * * ufm ${eps} ${sig}

  timestep          ${dt}
#------------------------------------------------------------------------------------------------------#


################################     Fixes, computes and constraints     ###############################
# Integrator & thermostat.
  fix               f1 all nve
  fix               f2 all langevin $T $T ${damp_T} ${rnd}
  variable          rnd equal round(random(0,999999,0))     # Generates new rnd #.

# Compute the potential energy of each pair style.
  compute           c1 all pair sw
  compute           c2 all pair ufm
#------------------------------------------------------------------------------------------------------#


##########################################     Output setup     ########################################
# Output variables.
  variable          step equal step
  variable          dU equal (c_c1-c_c2)/atoms              # Driving-force during NEHI procedure.

# Thermo output.
  thermo_style      custom step v_dU
  thermo            1000
#------------------------------------------------------------------------------------------------------#


##########################################     Run simulation     ######################################
# Turn UF potential off (completely) to equilibrate the SW potential.
  variable          zero equal 0
  fix               f0 all adapt 0 pair ufm fscale * * v_zero
  run               0
  unfix             f0

# Equilibrate the fluid interacting by SW potential and switch to UF potential (Forward realization).
  run               ${t_eq}

  print             "${dU} ${li}" file data/forward_${N_sim}.dat
  variable          lambda_sw equal ramp(${li},${lf})
  fix               f3 all adapt 1 pair sw fscale * * v_lambda_sw
  variable          lambda_ufm equal ramp(${lf},${li})
  fix               f4 all adapt 1 pair ufm fscale * * v_lambda_ufm
  fix               f5 all print 1 "${dU} ${lambda_sw}" &
                    title "# dU lambda" screen no       &
                    append data/forward_${N_sim}.dat

  run               ${t_s}

  unfix             f3
  unfix             f4
  unfix             f5

# Equilibrate the fluid interacting by UF potential and switch to SW potential (Backward realization).
  run               ${t_eq}

  print             "${dU} ${lf}" file data/backward_${N_sim}.dat
  variable          lambda_sw equal ramp(${lf},${li})
  fix               f3 all adapt 1 pair sw fscale * * v_lambda_sw
  variable          lambda_ufm equal ramp(${li},${lf})
  fix               f4 all adapt 1 pair ufm fscale * * v_lambda_ufm
  fix               f5 all print 1 "${dU} ${lambda_sw}" &
                    title "# dU lambda" screen no       &
                    append data/backward_${N_sim}.dat

  run               ${t_s}

  unfix             f3
  unfix             f4
  unfix             f5
#------------------------------------------------------------------------------------------------------#


##########################################     Loop procedure     ######################################
next N_sim
clear
jump input_nehi.lmp RESTART
#------------------------------------------------------------------------------------------------------#
